p wcnf 163 82 83 
1 -157 -45 0 
1 50 -12 0 
1 -52 145 0 
1 -8 -131 0 
1 101 50 0 
1 -84 10 0 
1 2 39 0 
1 77 -144 0 
1 40 -22 0 
1 -53 -88 0 
1 -101 139 0 
1 -76 -55 0 
1 -15 139 0 
1 -2 36 0 
1 -113 7 0 
1 14 -94 0 
1 -159 52 0 
1 110 -65 0 
1 73 10 0 
1 -82 -8 0 
1 -106 -102 0 
1 -50 98 0 
1 133 117 0 
1 19 112 0 
1 112 -30 0 
1 150 -142 0 
1 -147 69 0 
1 -58 -102 0 
1 -85 -110 0 
1 -158 -142 0 
1 -84 -144 0 
1 57 147 0 
1 -101 -54 0 
1 -141 -88 0 
1 -17 -108 0 
1 33 -91 0 
1 -90 -72 0 
1 151 46 0 
1 -145 -127 0 
1 -157 -151 0 
1 144 -146 0 
1 -92 -3 0 
1 50 30 0 
1 -143 107 0 
1 110 25 0 
1 -123 -129 0 
1 5 72 0 
1 63 37 0 
1 -79 -114 0 
1 -147 -49 0 
1 40 -14 0 
1 -5 -13 0 
1 125 41 0 
1 -20 -137 0 
1 153 34 0 
1 84 -22 0 
1 118 79 0 
1 157 -38 0 
1 -49 66 0 
1 -20 -128 0 
1 -81 133 0 
1 3 -79 0 
1 9 -100 0 
1 -101 115 0 
1 92 -86 0 
1 -78 -163 0 
1 -145 -79 0 
1 158 -139 0 
1 119 29 0 
1 26 23 0 
1 -50 -107 0 
1 89 97 0 
1 122 17 0 
1 -125 -4 0 
1 -145 77 0 
1 46 23 0 
1 18 90 0 
1 -34 -101 0 
1 -95 156 0 
1 -97 153 0 
1 -98 9 0 
1 -50 -79 0 
